NAME          BLANK   
ROWS
 N  OBJROW
 G  row-1
 G  row-2
 G  row-3
 G  row-4
 G  row-5
 G  row-6
 G  row-7
 G  row-8
 G  row-9
 G  row-10
COLUMNS
    x(1)      OBJROW    484.4          row-1     603.        
    x(1)      row-2     385.           row-3     346.        
    x(1)      row-4     928.           row-5     240.        
    x(1)      row-6     216.           row-7     963.        
    x(1)      row-8     834.           row-9     326.        
    x(1)      row-10    3.          
    x(2)      OBJROW    419.3          row-1     680.        
    x(2)      row-2     528.           row-3     645.        
    x(2)      row-4     282.           row-5     642.        
    x(2)      row-6     4.             row-7     541.        
    x(2)      row-8     555.           row-9     59.         
    x(2)      row-10    257.        
    x(3)      OBJROW    393.2          row-1     164.        
    x(3)      row-2     648.           row-3     940.        
    x(3)      row-4     70.            row-5     485.        
    x(3)      row-6     308.           row-7     295.        
    x(3)      row-8     537.           row-9     255.        
    x(3)      row-10    230.        
    x(4)      OBJROW    545.5          row-1     562.        
    x(4)      row-2     904.           row-3     530.        
    x(4)      row-4     283.           row-5     221.        
    x(4)      row-6     210.           row-7     270.        
    x(4)      row-8     657.           row-9     965.        
    x(4)      row-10    853.        
    x(5)      OBJROW    558.2          row-1     153.        
    x(5)      row-2     593.           row-3     727.        
    x(5)      row-4     501.           row-5     387.        
    x(5)      row-6     446.           row-7     766.        
    x(5)      row-8     582.           row-9     447.        
    x(5)      row-10    980.        
    x(6)      OBJROW    580.5          row-1     974.        
    x(6)      row-2     691.           row-3     686.        
    x(6)      row-4     427.           row-5     259.        
    x(6)      row-6     543.           row-7     723.        
    x(6)      row-8     33.            row-9     977.        
    x(6)      row-10    492.        
    x(7)      OBJROW    623.5          row-1     870.        
    x(7)      row-2     478.           row-3     904.        
    x(7)      row-4     792.           row-5     443.        
    x(7)      row-6     931.           row-7     429.        
    x(7)      row-8     867.           row-9     403.        
    x(7)      row-10    118.        
    x(8)      OBJROW    405.9          row-1     694.        
    x(8)      row-2     654.           row-3     472.        
    x(8)      row-4     46.            row-5     175.        
    x(8)      row-6     575.           row-7     67.         
    x(8)      row-8     220.           row-9     378.        
    x(8)      row-10    778.        
    x(9)      OBJROW    581.5          row-1     559.        
    x(9)      row-2     487.           row-3     133.        
    x(9)      row-4     654.           row-5     864.        
    x(9)      row-6     683.           row-7     944.        
    x(9)      row-8     324.           row-9     983.        
    x(9)      row-10    184.        
    x(10)     OBJROW    420.1          row-1     119.        
    x(10)     row-2     323.           row-3     100.        
    x(10)     row-4     996.           row-5     24.         
    x(10)     row-6     828.           row-7     283.        
    x(10)     row-8     605.           row-9     768.        
    x(10)     row-10    155.        
    x(11)     OBJROW    399.5          row-1     90.         
    x(11)     row-2     54.            row-3     745.        
    x(11)     row-4     150.           row-5     803.        
    x(11)     row-6     190.           row-7     375.        
    x(11)     row-8     75.            row-9     992.        
    x(11)     row-10    521.        
    x(12)     OBJROW    499.1          row-1     483.        
    x(12)     row-2     443.           row-3     870.        
    x(12)     row-4     1.             row-5     792.        
    x(12)     row-6     923.           row-7     160.        
    x(12)     row-8     640.           row-9     169.        
    x(12)     row-10    510.        
    x(13)     OBJROW    490.7          row-1     831.        
    x(13)     row-2     3.             row-3     629.        
    x(13)     row-4     641.           row-5     306.        
    x(13)     row-6     471.           row-7     639.        
    x(13)     row-8     498.           row-9     323.        
    x(13)     row-10    566.        
    x(14)     OBJROW    445.           row-1     82.         
    x(14)     row-2     218.           row-3     745.        
    x(14)     row-4     90.            row-5     873.        
    x(14)     row-6     27.            row-7     35.         
    x(14)     row-8     723.           row-9     881.        
    x(14)     row-10    776.        
    x(15)     OBJROW    626.6          row-1     746.        
    x(15)     row-2     357.           row-3     774.        
    x(15)     row-4     883.           row-5     76.         
    x(15)     row-6     144.           row-7     722.        
    x(15)     row-8     910.           row-9     826.        
    x(15)     row-10    828.        
    x(16)     OBJROW    346.3          row-1     374.        
    x(16)     row-2     509.           row-3     222.        
    x(16)     row-4     721.           row-5     807.        
    x(16)     row-6     210.           row-7     85.         
    x(16)     row-8     265.           row-9     257.        
    x(16)     row-10    13.         
    x(17)     OBJROW    383.8          row-1     745.        
    x(17)     row-2     193.           row-3     788.        
    x(17)     row-4     129.           row-5     301.        
    x(17)     row-6     286.           row-7     579.        
    x(17)     row-8     446.           row-9     266.        
    x(17)     row-10    105.        
    x(18)     OBJROW    384.5          row-1     95.         
    x(18)     row-2     227.           row-3     253.        
    x(18)     row-4     139.           row-5     868.        
    x(18)     row-6     939.           row-7     5.          
    x(18)     row-8     691.           row-9     45.         
    x(18)     row-10    583.        
    x(19)     OBJROW    497.6          row-1     844.        
    x(19)     row-2     203.           row-3     228.        
    x(19)     row-4     545.           row-5     853.        
    x(19)     row-6     386.           row-7     13.         
    x(19)     row-8     684.           row-9     829.        
    x(19)     row-10    391.        
    x(20)     OBJROW    540.5          row-1     920.        
    x(20)     row-2     104.           row-3     275.        
    x(20)     row-4     614.           row-5     955.        
    x(20)     row-6     503.           row-7     614.        
    x(20)     row-8     742.           row-9     590.        
    x(20)     row-10    88.         
RHS
    RHS       row-1     2647.          row-2     2000.5      
    RHS       row-3     2753.          row-4     2223.       
    RHS       row-5     2593.5         row-6     2205.75     
    RHS       row-7     2127.          row-8     2722.       
    RHS       row-9     2684.75        row-10    2107.75     
BOUNDS
 UP BOUND     x(1)      1.          
 UP BOUND     x(2)      1.          
 UP BOUND     x(3)      1.          
 UP BOUND     x(4)      1.          
 UP BOUND     x(5)      1.          
 UP BOUND     x(6)      1.          
 UP BOUND     x(7)      1.          
 UP BOUND     x(8)      1.          
 UP BOUND     x(9)      1.          
 UP BOUND     x(10)     1.          
 UP BOUND     x(11)     1.          
 UP BOUND     x(12)     1.          
 UP BOUND     x(13)     1.          
 UP BOUND     x(14)     1.          
 UP BOUND     x(15)     1.          
 UP BOUND     x(16)     1.          
 UP BOUND     x(17)     1.          
 UP BOUND     x(18)     1.          
 UP BOUND     x(19)     1.          
 UP BOUND     x(20)     1.          
ENDATA
